c 3 - XORSAT
p cnf 50 200
8 18 23 0
-8 -18 23 0
-8 18 -23 0
8 -18 -23 0
-2 -28 -35 0
-2 28 35 0
2 -28 35 0
2 28 -35 0
-17 -31 -45 0
-17 31 45 0
17 -31 45 0
17 31 -45 0
5 18 22 0
-5 -18 22 0
-5 18 -22 0
5 -18 -22 0
-27 -38 -42 0
-27 38 42 0
27 -38 42 0
27 38 -42 0
12 15 21 0
-12 -15 21 0
-12 15 -21 0
12 -15 -21 0
-23 -32 -47 0
-23 32 47 0
23 -32 47 0
23 32 -47 0
4 43 46 0
-4 -43 46 0
-4 43 -46 0
4 -43 -46 0
20 24 41 0
-20 -24 41 0
-20 24 -41 0
20 -24 -41 0
2 37 38 0
-2 -37 38 0
-2 37 -38 0
2 -37 -38 0
43 46 47 0
-43 -46 47 0
-43 46 -47 0
43 -46 -47 0
-24 -45 -50 0
-24 45 50 0
24 -45 50 0
24 45 -50 0
-3 -21 -35 0
-3 21 35 0
3 -21 35 0
3 21 -35 0
-4 -5 -25 0
-4 5 25 0
4 -5 25 0
4 5 -25 0
-4 -43 -48 0
-4 43 48 0
4 -43 48 0
4 43 -48 0
-3 -26 -30 0
-3 26 30 0
3 -26 30 0
3 26 -30 0
-12 -27 -39 0
-12 27 39 0
12 -27 39 0
12 27 -39 0
6 22 30 0
-6 -22 30 0
-6 22 -30 0
6 -22 -30 0
-26 -24 -32 0
-26 24 32 0
26 -24 32 0
26 24 -32 0
-1 -28 -29 0
-1 28 29 0
1 -28 29 0
1 28 -29 0
8 10 42 0
-8 -10 42 0
-8 10 -42 0
8 -10 -42 0
10 31 34 0
-10 -31 34 0
-10 31 -34 0
10 -31 -34 0
-11 -17 -18 0
-11 17 18 0
11 -17 18 0
11 17 -18 0
16 25 33 0
-16 -25 33 0
-16 25 -33 0
16 -25 -33 0
28 37 44 0
-28 -37 44 0
-28 37 -44 0
28 -37 -44 0
-3 -49 -50 0
-3 49 50 0
3 -49 50 0
3 49 -50 0
-25 -36 -38 0
-25 36 38 0
25 -36 38 0
25 36 -38 0
-10 -11 -14 0
-10 11 14 0
10 -11 14 0
10 11 -14 0
-27 -30 -40 0
-27 30 40 0
27 -30 40 0
27 30 -40 0
11 33 34 0
-11 -33 34 0
-11 33 -34 0
11 -33 -34 0
29 45 48 0
-29 -45 48 0
-29 45 -48 0
29 -45 -48 0
-2 -19 -21 0
-2 19 21 0
2 -19 21 0
2 19 -21 0
-17 -36 -39 0
-17 36 39 0
17 -36 39 0
17 36 -39 0
22 36 19 0
-22 -36 19 0
-22 36 -19 0
22 -36 -19 0
13 14 34 0
-13 -14 34 0
-13 14 -34 0
13 -14 -34 0
-29 -40 -41 0
-29 40 41 0
29 -40 41 0
29 40 -41 0
1 16 44 0
-1 -16 44 0
-1 16 -44 0
1 -16 -44 0
48 49 50 0
-48 -49 50 0
-48 49 -50 0
48 -49 -50 0
-12 -20 -31 0
-12 20 31 0
12 -20 31 0
12 20 -31 0
-7 -41 -46 0
-7 41 46 0
7 -41 46 0
7 41 -46 0
-9 -26 -40 0
-9 26 40 0
9 -26 40 0
9 26 -40 0
-1 -7 -32 0
-1 7 32 0
1 -7 32 0
1 7 -32 0
-9 -13 -19 0
-9 13 19 0
9 -13 19 0
9 13 -19 0
-37 -16 -39 0
-37 16 39 0
37 -16 39 0
37 16 -39 0
5 6 13 0
-5 -6 13 0
-5 6 -13 0
5 -6 -13 0
-15 -42 -44 0
-15 42 44 0
15 -42 44 0
15 42 -44 0
-6 -35 -49 0
-6 35 49 0
6 -35 49 0
6 35 -49 0
-23 -33 -47 0
-23 33 47 0
23 -33 47 0
23 33 -47 0
9 14 20 0
-9 -14 20 0
-9 14 -20 0
9 -14 -20 0
7 8 15 0
-7 -8 15 0
-7 8 -15 0
7 -8 -15 0
